data/solutions/recovery/degenerate/intermediate/binding/degenerate_intermediate_instance37/65.sol
Elapsed time: 0.04
Upper bound: 208065.0
Planning weighted value: 9666485163.0
C[0]=208065.0
C[1]=207990.0
C[2]=199947.0
C[3]=198047.0
C[4]=197877.0
C[5]=188429.0
C[6]=184529.0
C[7]=182319.0
C[8]=132175.0
C[9]=127983.0
C[10]=127404.0
C[11]=122437.0
C[12]=122149.0
C[13]=90657.0
C[14]=0.0
C[15]=0.0
y[0]=4
y[1]=6
y[2]=9
y[3]=5
y[4]=7
y[5]=3
y[6]=6
y[7]=8
y[8]=1
y[9]=11
y[10]=1
y[11]=10
y[12]=1
y[13]=0
y[14]=3
y[15]=11
y[16]=9
y[17]=8
y[18]=12
y[19]=1
y[20]=1
y[21]=1
y[22]=10
y[23]=2
y[24]=9
y[25]=3
y[26]=11
y[27]=1
y[28]=0
y[29]=2
y[30]=4
y[31]=13
y[32]=2
y[33]=3
y[34]=2
y[35]=6
y[36]=10
y[37]=9
y[38]=1
y[39]=7
y[40]=12
y[41]=1
y[42]=1
y[43]=2
y[44]=13
y[45]=10
y[46]=7
y[47]=12
y[48]=2
y[49]=3
y[50]=2
y[51]=5
y[52]=7
y[53]=8
y[54]=13
y[55]=6
y[56]=10
y[57]=0
y[58]=5
y[59]=1
y[60]=2
y[61]=3
y[62]=5
y[63]=1
y[64]=4
