data/solutions/recovery/degenerate/intermediate/binding/degenerate_intermediate_instance37/65.log

Log started (V12.6.3.0) Sun Apr 22 12:33:35 2018

New value for default parallel thread count: 1

Problem '/tmp/tmp9wQP7h.pyomo.lp' read.
Read time = 0.02 sec. (0.73 ticks)

Problem name         : /tmp/tmp9wQP7h.pyomo.lp
Objective sense      : Minimize
Variables            :    1058  [Nneg: 1,  Binary: 1040,  General Integer: 17]
Objective nonzeros   :       1
Linear constraints   :     165  [Less: 81,  Equal: 84]
  Nonzeros           :   51952
  RHS nonzeros       :      66

Variables            : Min LB: 0.000000         Max UB: 1.000000       
Objective nonzeros   : Min   : 1.000000         Max   : 1.000000       
Linear constraints   :
  Nonzeros           : Min   : 1.000000         Max   : 128311.0       
  RHS nonzeros       : Min   : 1.000000         Max   : 1.000000       
Tried aggregator 2 times.
MIP Presolve eliminated 124 rows and 861 columns.
Aggregator did 14 substitutions.
Reduced MIP has 27 rows, 183 columns, and 378 nonzeros.
Reduced MIP has 182 binaries, 1 generals, 0 SOSs, and 0 indicators.
Presolve time = 0.00 sec. (4.03 ticks)
Found incumbent of value 821921.000000 after 0.00 sec. (5.35 ticks)
Probing time = 0.00 sec. (0.22 ticks)
Tried aggregator 1 time.
Reduced MIP has 27 rows, 183 columns, and 378 nonzeros.
Reduced MIP has 182 binaries, 1 generals, 0 SOSs, and 0 indicators.
Presolve time = 0.00 sec. (0.30 ticks)
Probing time = 0.00 sec. (0.22 ticks)
Clique table members: 13.
MIP emphasis: balance optimality and feasibility.
MIP search method: dynamic search.
Parallel mode: none, using 1 thread.
Root relaxation solution time = 0.00 sec. (0.18 ticks)

        Nodes                                         Cuts/
   Node  Left     Objective  IInf  Best Integer    Best Bound    ItCnt     Gap

*     0+    0                       821921.0000   208065.0000            74.69%
      0     0   208065.0000    13   821921.0000   208065.0000       27   74.69%
*     0+    0                       255715.0000   208065.0000            18.63%
      0     0   208065.0000     5   255715.0000       Cuts: 9       39   18.63%
*     0+    0                       250748.0000   208065.0000            17.02%
      0     0   208065.0000     4   250748.0000       Cuts: 7       44   17.02%
*     0+    0                       238099.0000   208065.0000            12.61%
      0     0   208065.0000     6   238099.0000       Cuts: 4       52   12.61%
*     0+    0                       208065.0000   208065.0000             0.00%
      0     0        cutoff         208065.0000   208065.0000       52    0.00%
Elapsed time = 0.01 sec. (7.81 ticks, tree = 0.01 MB, solutions = 5)

Implied bound cuts applied:  3
Mixed integer rounding cuts applied:  10
Zero-half cuts applied:  1
Gomory fractional cuts applied:  3

Root node processing (before b&c):
  Real time             =    0.01 sec. (7.87 ticks)
Sequential b&c:
  Real time             =    0.00 sec. (0.00 ticks)
                          ------------
Total (root+branch&cut) =    0.01 sec. (7.87 ticks)

Solution pool: 5 solutions saved.

MIP - Integer optimal solution:  Objective =  2.0806500000e+05
Solution time =    0.01 sec.  Iterations = 52  Nodes = 0
Deterministic time = 7.87 ticks  (960.26 ticks/sec)


Incumbent solution written to file '/tmp/tmpB00YMM.cplex.sol'.
